(declare-const a Real)
(declare-const b Real)
(assert (< (+ a b) 6))
(assert (> a 0))
(assert (> b 0))
(assert (not (<= (+ (/ -3 2) (* (pow (+ a b) (/ 1 2)) (pow (+ b (* 7 a)) (/ -1 2))) (* (pow (+ (* 2 a) (* 14 b)) -1) (+ a b)) (* 6 (pow (* a b) (/ 1 2)) (pow (+ (* 8 (pow (+ a b) 2)) (* 36 a b)) (/ -1 2)))) 0)))
(check-sat)
(get-model)
(exit)